
******************************************************************************
This program contains Ipopt, a library for large-scale nonlinear optimization.
 Ipopt is released as open source code under the Eclipse Public License (EPL).
         For more information visit http://projects.coin-or.org/Ipopt

This version of Ipopt was compiled from source code available at
    https://github.com/IDAES/Ipopt as part of the Institute for the Design of
    Advanced Energy Systems Process Systems Engineering Framework (IDAES PSE
    Framework) Copyright (c) 2018-2019. See https://github.com/IDAES/idaes-pse.

This version of Ipopt was compiled using HSL, a collection of Fortran codes
    for large-scale scientific computation.  All technical papers, sales and
    publicity material resulting from use of the HSL codes within IPOPT must
    contain the following acknowledgement:
        HSL, a collection of Fortran codes for large-scale scientific
        computation. See http://www.hsl.rl.ac.uk.
******************************************************************************

This is Ipopt version 3.13.2, running with linear solver ma27.

Number of nonzeros in equality constraint Jacobian...:      928
Number of nonzeros in inequality constraint Jacobian.:        0
Number of nonzeros in Lagrangian Hessian.............:      806

Total number of variables............................:      403
                     variables with only lower bounds:      124
                variables with lower and upper bounds:      217
                     variables with only upper bounds:        0
Total number of equality constraints.................:      402
Total number of inequality constraints...............:        0
        inequality constraints with only lower bounds:        0
   inequality constraints with lower and upper bounds:        0
        inequality constraints with only upper bounds:        0

iter    objective    inf_pr   inf_du lg(mu)  ||d||  lg(rg) alpha_du alpha_pr  ls
   0  0.0000000e+00 1.17e+00 2.22e-16  -1.0 0.00e+00    -  0.00e+00 0.00e+00   0
   1  1.5472137e-01 1.04e+00 9.56e+04  -1.0 1.99e+05    -  2.67e-01 1.25e-01h  1
   2  1.8343350e-01 1.02e+00 9.57e+04  -1.0 2.29e+05    -  4.88e-01 1.21e-02h  1
   3  1.7905295e+01 3.21e-01 7.73e+04  -1.0 2.32e+05    -  4.91e-01 9.90e-01h  1
   4  2.3014150e+01 4.52e-02 1.85e+03  -1.0 3.37e+04    -  7.68e-01 9.90e-01h  1
   5  2.3156647e+01 1.43e-03 6.13e+02  -1.0 1.35e+03    -  9.85e-01 9.90e-01h  1
   6  2.3164306e+01 1.53e-05 1.51e+01  -1.0 9.34e+01    -  9.90e-01 9.90e-01h  1
   7  2.3166631e+01 1.51e-05 1.13e+09  -1.0 2.22e+03    -  9.90e-01 1.55e-02h  7
   8  2.3168136e+01 1.50e-05 2.27e+09  -1.0 2.87e+03    -  9.91e-01 7.73e-03h  8
   9  2.3169652e+01 1.48e-05 3.43e+09  -1.0 2.90e+03    -  1.00e+00 7.73e-03h  8
iter    objective    inf_pr   inf_du lg(mu)  ||d||  lg(rg) alpha_du alpha_pr  ls
  10  2.3171155e+01 1.47e-05 4.59e+09  -1.0 2.87e+03    -  1.00e+00 7.73e-03h  8
  11  2.3172641e+01 1.46e-05 5.75e+09  -1.0 2.84e+03    -  1.00e+00 7.73e-03h  8
  12  2.3174112e+01 1.45e-05 6.90e+09  -1.0 2.81e+03    -  1.00e+00 7.73e-03h  8
  13  2.3175568e+01 1.44e-05 8.06e+09  -1.0 2.78e+03    -  1.00e+00 7.73e-03h  8
  14  2.3177008e+01 1.43e-05 9.22e+09  -1.0 2.75e+03    -  1.00e+00 7.73e-03h  8
  15  2.3178433e+01 1.42e-05 1.04e+10  -1.0 2.72e+03    -  1.00e+00 7.73e-03h  8
  16  2.3179843e+01 1.41e-05 1.15e+10  -1.0 2.69e+03    -  1.00e+00 7.73e-03h  8
  17  2.3359228e+01 1.85e-03 1.28e+08  -1.0 2.67e+03    -  1.00e+00 9.90e-01w  1
  18  2.3344730e+01 2.89e-05 1.26e+09  -1.0 2.13e+02    -  1.00e+00 9.90e-01h  1
  19  2.3344990e+01 3.02e-07 1.26e+11  -1.0 3.91e+00    -  1.00e+00 9.90e-01h  1
In iteration 19, 31 Slacks too small, adjusting variable bounds
iter    objective    inf_pr   inf_du lg(mu)  ||d||  lg(rg) alpha_du alpha_pr  ls
  20  2.3344993e+01 3.03e-09 1.26e+13  -1.0 3.48e-02    -  1.00e+00 9.90e-01h  1
  21  2.3344993e+01 1.78e-12 1.23e-01  -1.0 3.48e-04    -  1.00e+00 1.00e+00h  1
  22  2.3344813e+01 8.12e-10 1.25e+13  -9.0 4.72e+03    -  9.71e-01 5.60e-04f 11
  23  2.3344633e+01 1.62e-09 1.28e+13  -9.0 2.88e+03    -  9.95e-01 9.17e-04f 11
  24  2.3344453e+01 2.43e-09 1.28e+13  -9.0 2.72e+03    -  9.96e-01 9.71e-04f 11
  25  2.3344364e+01 2.63e-09 1.28e+13  -9.0 2.70e+03    -  1.00e+00 4.88e-04f 12
  26  2.3344319e+01 2.68e-09 1.28e+13  -9.0 2.70e+03    -  1.00e+00 2.44e-04f 13
  27  2.3161563e+01 2.92e-03 2.39e+08  -9.0 2.70e+03    -  1.00e+00 1.00e+00f  1
  28  2.3158023e+01 6.24e-08 3.85e-02  -9.0 4.98e+01    -  1.00e+00 1.00e+00h  1
  29  2.3158023e+01 5.44e-12 1.99e-10  -9.0 1.60e-03    -  1.00e+00 1.00e+00h  1

Number of Iterations....: 29

                                   (scaled)                 (unscaled)
Objective...............:   2.3158023105975118e+01    2.3158023105975118e+01
Dual infeasibility......:   1.9857387662679392e-10    1.9857387662679392e-10
Constraint violation....:   5.4369841961943166e-12    5.4369841961943166e-12
Complementarity.........:   9.0909149400648242e-10    9.0909149400648242e-10
Overall NLP error.......:   1.4129929038851087e-11    9.0909149400648242e-10


Number of objective function evaluations             = 210
Number of objective gradient evaluations             = 30
Number of equality constraint evaluations            = 210
Number of inequality constraint evaluations          = 0
Number of equality constraint Jacobian evaluations   = 30
Number of inequality constraint Jacobian evaluations = 0
Number of Lagrangian Hessian evaluations             = 29
Total CPU secs in IPOPT (w/o function evaluations)   =      0.083
Total CPU secs in NLP function evaluations           =      2.135

EXIT: Optimal Solution Found.
